p cnf 25 42
-1 -2 12 21 0 
-3 5 -4 7 -2 12 22 0 
-4 7 -2 12 -5 3 23 0 
-2 12 21 0 
-2 12 -4 7 23 0 
-6 13 -7 4 -2 12 21 0 
-6 13 -3 5 -2 12 23 0 
-8 11 -2 12 23 0 
-1 -2 12 23 0 
-9 20 -2 12 21 0 
-10 -2 12 21 0 
-5 3 -2 12 21 0 
-2 12 23 0 
-11 8 -4 7 -5 3 -12 2 -13 6 23 0 
-7 4 -2 12 21 0 
-11 8 -4 7 -3 5 -13 6 22 0 
-13 6 -1 -2 12 23 0 
-2 12 -11 8 23 0 
-13 6 -3 5 -2 12 23 0 
-2 12 -3 5 -13 6 22 0 
-14 -2 12 21 0 
-6 13 -7 4 -2 12 23 0 
-2 12 -13 6 23 0 
-4 7 -2 12 -15 -16 -11 8 23 0 
-2 12 -1 -9 20 -11 8 23 0 
-8 11 -2 12 21 0 
-14 -2 12 23 0 
-17 -4 7 21 0 
-17 -5 3 23 0 
-18 -2 12 21 0 
-15 -2 12 21 0 
-19 24 0 
-12 2 -5 3 23 0 
-15 -2 12 23 0 
-3 5 -12 2 -13 6 21 0 
-13 6 -14 -2 12 23 0 
-1 -13 6 -3 5 -2 12 23 0 
-5 3 -20 9 25 0 
-3 5 -2 12 21 0 
-13 6 -15 -2 12 23 0 
-2 12 -3 5 -4 7 22 0 
-16 -2 12 21 0 
